(set-info :smt-lib-version 2.6)
(set-logic QF_S)
(set-info :source |
Generated by: Murphy Berzish, Mitja Kulczynski, Federico Mora, Florin Manea, Joel Day, Dirk Nowotka, Vijay Ganesh, Zhengyang Lu
Generated on: 2020-10-01
Description: Translated from a collection of real-world regex queries, AutomataArk, collected by Loris D’Antoni and Fang Wang: https://github.com/lorisdanto/automatark
Application: Evaluate solvers on real-world regex queries
Target solver: Z3str3RE, CVC4, OSTRICH, Z3seq, Z3str3, Z3-Trau
Publications: Berzish, M., Kulczynski, M., Mora, F., Manea, F., Day, J. D., Nowotka, D., & Ganesh, V. (2021, July). An SMT solver for regular expressions and linear arithmetic over string length. In CAV 2021.
|)
(set-info :license "https://creativecommons.org/licenses/by/4.0/")
(set-info :category "industrial")
(set-info :status unsat)

(declare-const X String)
(assert (not (str.in_re X (re.++ (re.union (re.++ (re.union ((_ re.loop 1 1) (str.to_re "+")) ((_ re.loop 2 2) (str.to_re "0"))) (str.to_re "98")) ((_ re.loop 1 1) (str.to_re "0"))) (str.to_re "9") ((_ re.loop 1 1) (re.range "1" "9")) ((_ re.loop 8 8) (re.range "0" "9")) (str.to_re "\u{a}")))))
(assert (str.in_re X (re.++ (re.range "\u{80}" "\u{ff}") (str.to_re "\u{a}"))))
(assert (str.in_re X (re.++ (re.union (re.++ (re.union (re.++ (str.to_re "0") (re.range "1" "9")) (re.++ (re.union (str.to_re "1") (str.to_re "2")) (re.range "0" "9")) (re.++ (str.to_re "3") (re.union (str.to_re "0") (str.to_re "1")))) (str.to_re " ") (re.union (str.to_re "JAN") (str.to_re "MAR") (str.to_re "MAY") (str.to_re "JUL") (str.to_re "AUG") (str.to_re "OCT") (str.to_re "DEC"))) (re.++ (re.union (re.++ (str.to_re "0") (re.range "1" "9")) (re.++ (re.union (str.to_re "1") (str.to_re "2")) (re.range "0" "9")) (str.to_re "30")) (str.to_re " ") (re.union (str.to_re "APR") (str.to_re "JUN") (str.to_re "SEP") (str.to_re "NOV"))) (re.++ (re.union (re.++ (str.to_re "0") (re.range "1" "9")) (re.++ (re.union (str.to_re "1") (str.to_re "2")) (re.range "0" "9"))) (str.to_re " FEB"))) (str.to_re " ") (re.range "0" "9") (re.range "0" "9") (re.range "0" "9") (re.range "0" "9") (str.to_re " \u{a}") (re.union (re.++ (re.range "0" "1") (re.range "0" "9")) (re.++ (str.to_re "2") (re.range "0" "3"))) (str.to_re ":") (re.range "0" "5") (re.range "0" "9") (str.to_re ":") (re.range "0" "5") (re.range "0" "9"))))
(assert (str.in_re X (re.++ (str.to_re "/") ((_ re.loop 8 8) (re.union (re.range "0" "9") (re.range "a" "f") (re.range "A" "F"))) ((_ re.loop 6 6) (re.range "a" "z")) re.allchar (str.to_re "php/\u{a}"))))
(check-sat)

(exit)
